Using license file /home/benedond/gurobi.lic
Using gurobi.env file
Set parameter Threads to value 1
Academic license - for non-commercial use only
Changed value of parameter TimeLimit to 300.0
   Prev: inf  Min: 0.0  Max: inf  Default: inf
Gurobi Optimizer version 9.0.1 build v9.0.1rc0 (linux64)
Optimize a model with 1920 rows, 1830 columns and 7288 nonzeros
Model fingerprint: 0x07afa216
Variable types: 30 continuous, 1800 integer (1800 binary)
Coefficient statistics:
  Matrix range     [1e+00, 4e+02]
  Objective range  [4e+01, 4e+02]
  Bounds range     [1e+00, 1e+00]
  RHS range        [1e+00, 1e+03]
Presolve removed 295 rows and 295 columns
Presolve time: 0.34s
Presolved: 1625 rows, 1535 columns, 6108 nonzeros
Variable types: 30 continuous, 1505 integer (1505 binary)

Root relaxation: objective 5.168000e+03, 290 iterations, 0.01 seconds

    Nodes    |    Current Node    |     Objective Bounds      |     Work
 Expl Unexpl |  Obj  Depth IntInf | Incumbent    BestBd   Gap | It/Node Time

     0     0 5168.00000    0   44          - 5168.00000      -     -    0s
H    0     0                    4570.0000000 5168.00000  13.1%     -    0s
     0     0 5168.00000    0   34 4570.00000 5168.00000  13.1%     -    0s
     0     0 5168.00000    0   19 4570.00000 5168.00000  13.1%     -    1s
H    0     0                    4964.0000000 5168.00000  4.11%     -    1s
     0     0 5168.00000    0   39 4964.00000 5168.00000  4.11%     -    1s
     0     0 5168.00000    0   39 4964.00000 5168.00000  4.11%     -    1s
     0     0 5168.00000    0   23 4964.00000 5168.00000  4.11%     -    1s
H    0     0                    4973.0000000 5168.00000  3.92%     -    1s
     0     0 5168.00000    0   21 4973.00000 5168.00000  3.92%     -    1s
     0     0 5168.00000    0   21 4973.00000 5168.00000  3.92%     -    1s
     0     0 5168.00000    0   15 4973.00000 5168.00000  3.92%     -    1s
H    0     0                    5088.0000000 5168.00000  1.57%     -    1s
     0     0 5168.00000    0   20 5088.00000 5168.00000  1.57%     -    1s
     0     0 5168.00000    0   12 5088.00000 5168.00000  1.57%     -    1s
     0     0 5168.00000    0   15 5088.00000 5168.00000  1.57%     -    1s
     0     0 5168.00000    0   20 5088.00000 5168.00000  1.57%     -    1s
     0     0 5168.00000    0   23 5088.00000 5168.00000  1.57%     -    1s
     0     0 5168.00000    0   17 5088.00000 5168.00000  1.57%     -    1s
     0     0 5168.00000    0   17 5088.00000 5168.00000  1.57%     -    1s
     0     0 5168.00000    0   37 5088.00000 5168.00000  1.57%     -    1s
     0     0 5168.00000    0   54 5088.00000 5168.00000  1.57%     -    1s
     0     0 5168.00000    0   54 5088.00000 5168.00000  1.57%     -    1s
     0     0 5168.00000    0   33 5088.00000 5168.00000  1.57%     -    2s
     0     0 5168.00000    0   33 5088.00000 5168.00000  1.57%     -    2s
     0     0 5168.00000    0   27 5088.00000 5168.00000  1.57%     -    2s
     0     0 5168.00000    0   33 5088.00000 5168.00000  1.57%     -    2s
     0     0 5168.00000    0   21 5088.00000 5168.00000  1.57%     -    2s
     0     0 5168.00000    0   40 5088.00000 5168.00000  1.57%     -    2s
     0     0 5168.00000    0   20 5088.00000 5168.00000  1.57%     -    2s
     0     0 5168.00000    0   44 5088.00000 5168.00000  1.57%     -    2s
     0     0 5168.00000    0   24 5088.00000 5168.00000  1.57%     -    2s
     0     0 5168.00000    0   16 5088.00000 5168.00000  1.57%     -    2s
     0     0 5168.00000    0   27 5088.00000 5168.00000  1.57%     -    2s
     0     0 5168.00000    0   35 5088.00000 5168.00000  1.57%     -    2s
     0     0 5168.00000    0   33 5088.00000 5168.00000  1.57%     -    2s
     0     0 5168.00000    0   10 5088.00000 5168.00000  1.57%     -    2s
     0     2 5168.00000    0    7 5088.00000 5168.00000  1.57%     -    2s
H  512   312                    5096.0000000 5168.00000  1.41%  18.5    2s
H  561   315                    5127.0000000 5168.00000  0.80%  32.1    4s
   857   262 5168.00000   31   32 5127.00000 5168.00000  0.80%  33.8    5s
H 3001     0                    5168.0000000 5168.00000  0.00%  29.2    9s

Cutting planes:
  Cover: 2
  Projected implied bound: 1
  MIR: 1
  Flow cover: 11
  RLT: 1
  Relax-and-lift: 1

Explored 3002 nodes (102165 simplex iterations) in 9.95 seconds
Thread count was 1 (of 4 available processors)

Solution count 7: 5168 5127 5096 ... 4570

Optimal solution found (tolerance 1.00e-04)
Best objective 5.168000000000e+03, best bound 5.168000000000e+03, gap 0.0000%
